12 24 6 10
17 16 4 5 9 19 20 4 19 15 18 17 8 4 15 19 17 10 15 16 18 18 10 12 
4.83 3.73 15.86 1.56 7.87 6.96 3.64 3.6 12.12 13.88 12.05 11.98 7.9 14.93 6.69 12.62 7.51 3.74 4.01 7.64 2.87 15.13 1.79 7.08 
4.75 4.01 12.96 13.42 11.91 1.7 2.24 15.63 8.27 13.11 6.21 2.79 13.32 12.3 13.44 11.51 3.76 15.75 7.71 8.83 8.11 10.17 1.22 9.52 
11.7 1.47 2.44 13.68 13.95 14.36 5.7 15.72 5.58 14.68 8.47 1.26 14.25 8.9 9.4 5.98 4.6 15.91 12.94 8.84 3.13 10.73 4.5 1.5 
0.08 6.29 13.11 0.12 5.59 2.23 8.92 7.92 6.95 4.21 1.43 1.58 8.79 14.36 1.01 15.57 15.25 13.87 4.53 15.31 8.37 1.54 4.36 7.8 
7.02 12.25 15.86 2.43 0.55 4.76 7.15 10.33 1.14 7.01 15.76 12.43 3.72 13.75 9.32 3.2 3.86 3.9 15.6 6.9 0.77 7.89 12.61 9.87 
2.41 11.32 8.84 5.54 14.43 14.48 15.84 2.07 10.65 14.89 6.83 7.35 1.04 9.58 7.24 7.07 1.53 14.19 8.97 5.11 9.86 8.01 12.8 9.14 
8 8 8 8 8 8 8 8 8 8 8 8 8 8 8 8 8 8 8 8 8 8 8 8 
9.93 4.5 3 8.76 12.23 3.21 9.97 6.15 7.46 0.2 4.78 2.7 3.99 0.01 2.62 12.36 13.23 0.16 7.11 3.75 13.45 5.44 4.93 15.15 
6.92 4.23 8.39 11.64 4.57 13.64 11.83 5.65 8.72 6.94 5.96 3.83 12.26 3.03 15.98 13.95 13.8 5.64 0.97 2.09 14.03 7.43 1.63 12.73 
8.72 10.87 14.34 13.71 6.72 1.47 6.12 6.73 0.32 0.06 15.52 5.44 14.73 10.57 4.11 0.55 11.4 3.34 11 6.02 10.35 0.03 0.52 7.17 
1.92 8.06 12.2 2.65 6.51 9.15 0.23 9.45 10.7 11.18 14.32 15.21 1.62 15.79 11.23 3.61 4.38 2.15 11.73 15.63 0.69 0.34 0.64 12.87 
2.15 14.37 12.49 5.11 9.32 4.27 2.31 6.13 5.14 8.57 5.38 0.98 10.82 14.06 14.56 15.01 6.29 15.72 13.94 8.64 14.74 8.81 13.55 2.45 
1 1 1 1 1 1 1 1 1 1 1 1 1 1 1 1 1 1 1 1 1 1 1 1 
1 1 1 1 1 1 1 1 1 1 1 1 1 1 1 1 1 1 1 1 1 1 1 1 
1 1 1 1 1 1 1 1 1 1 1 1 1 1 1 1 1 1 1 1 1 1 1 1 
1 1 1 1 1 1 1 1 1 1 1 1 1 1 1 1 1 1 1 1 1 1 1 1 
1 1 1 1 1 1 1 1 1 1 1 1 1 1 1 1 1 1 1 1 1 1 1 1 
1 1 1 1 1 1 1 1 1 1 1 1 1 1 1 1 1 1 1 1 1 1 1 1 
1 1 1 1 1 1 1 1 1 1 1 1 1 1 1 1 1 1 1 1 1 1 1 1 
1 1 1 1 1 1 1 1 1 1 1 1 1 1 1 1 1 1 1 1 1 1 1 1 
1 1 1 1 1 1 1 1 1 1 1 1 1 1 1 1 1 1 1 1 1 1 1 1 
1 1 1 1 1 1 1 1 1 1 1 1 1 1 1 1 1 1 1 1 1 1 1 1 
1 1 1 1 1 1 1 1 1 1 1 1 1 1 1 1 1 1 1 1 1 1 1 1 
1 1 1 1 1 1 1 1 1 1 1 1 1 1 1 1 1 1 1 1 1 1 1 1 
0.01 0.01 0.01 0.01 0.01 0.01 0.01 0.01 0.01 0.01 0.01 0.01 0.01 0.01 0.01 0.01 0.01 0.01 0.01 0.01 0.01 0.01 0.01 0.01 
0.02 0.02 0.02 0.02 0.02 0.02 0.02 0.02 0.02 0.02 0.02 0.02 0.02 0.02 0.02 0.02 0.02 0.02 0.02 0.02 0.02 0.02 0.02 0.02 
0.03 0.03 0.03 0.03 0.03 0.03 0.03 0.03 0.03 0.03 0.03 0.03 0.03 0.03 0.03 0.03 0.03 0.03 0.03 0.03 0.03 0.03 0.03 0.03 
0.04 0.04 0.04 0.04 0.04 0.04 0.04 0.04 0.04 0.04 0.04 0.04 0.04 0.04 0.04 0.04 0.04 0.04 0.04 0.04 0.04 0.04 0.04 0.04 
0.05 0.05 0.05 0.05 0.05 0.05 0.05 0.05 0.05 0.05 0.05 0.05 0.05 0.05 0.05 0.05 0.05 0.05 0.05 0.05 0.05 0.05 0.05 0.05 
0.06 0.06 0.06 0.06 0.06 0.06 0.06 0.06 0.06 0.06 0.06 0.06 0.06 0.06 0.06 0.06 0.06 0.06 0.06 0.06 0.06 0.06 0.06 0.06 
0.07 0.07 0.07 0.07 0.07 0.07 0.07 0.07 0.07 0.07 0.07 0.07 0.07 0.07 0.07 0.07 0.07 0.07 0.07 0.07 0.07 0.07 0.07 0.07 
0.2 0.2 0.2 0.2 0.2 0.2 0.2 0.2 0.2 0.2 0.2 0.2 0.2 0.2 0.2 0.2 0.2 0.2 0.2 0.2 0.2 0.2 0.2 0.2 
0.4 0.4 0.4 0.4 0.4 0.4 0.4 0.4 0.4 0.4 0.4 0.4 0.4 0.4 0.4 0.4 0.4 0.4 0.4 0.4 0.4 0.4 0.4 0.4 
0.6 0.6 0.6 0.6 0.6 0.6 0.6 0.6 0.6 0.6 0.6 0.6 0.6 0.6 0.6 0.6 0.6 0.6 0.6 0.6 0.6 0.6 0.6 0.6 
0.8 0.8 0.8 0.8 0.8 0.8 0.8 0.8 0.8 0.8 0.8 0.8 0.8 0.8 0.8 0.8 0.8 0.8 0.8 0.8 0.8 0.8 0.8 0.8 
1 1 1 1 1 1 1 1 1 1 1 1 1 1 1 1 1 1 1 1 1 1 1 1 
